#------------------------------------------------------------------------------
#$Date$
#$Revision$
#$URL$
#------------------------------------------------------------------------------
#
# This file is available in the Crystallography Open Database (COD),
# http://www.crystallography.net/. The original data for this entry
# were provided by IUCr Journals, http://journals.iucr.org/.
#
# The file may be used within the scientific community so long as
# proper attribution is given to the journal article from which the
# data were obtained.
#
data_2102164
loop_
_publ_author_name
'Blanc, Eric'
'Restori, Renzo'
'Schwarzenbach, Dieter'
'B\"urgi, Hans-Beat'
'F\"ortsch, Marcel'
'Venugopalan, Paloth'
'Ermer, Otto'
_publ_section_title
;
 Orientational disorder as a function of temperature in the clathrate
 structure of hydroquinone and C~60~
;
_journal_coeditor_code           BK0080
_journal_issue                   6
_journal_name_full               'Acta Crystallographica Section B'
_journal_page_first              1003
_journal_page_last               1010
_journal_paper_doi               10.1107/S0108768100007564
_journal_volume                  56
_journal_year                    2000
_chemical_formula_moiety         '(C6 H6 O2)3,C60'
_chemical_formula_sum            'C78 H18 O6'
_chemical_formula_weight         1050.996
_chemical_name_common            'tris-hydroquinone fullerene'
_chemical_name_systematic
; 
 ? 
;
_space_group_IT_number           166
_symmetry_cell_setting           trigonal
_symmetry_space_group_name_Hall  '-R 3 2"'
_symmetry_space_group_name_H-M   'R -3 m :H'
_cell_angle_alpha                90.0
_cell_angle_beta                 90.0
_cell_angle_gamma                120.0
_cell_formula_units_Z            3
_cell_length_a                   16.177(2)
_cell_length_b                   16.177(2)
_cell_length_c                   13.813(2)
_cell_measurement_reflns_used    25
_cell_measurement_temperature    293
_cell_measurement_theta_max      26.3
_cell_measurement_theta_min      8.7
_cell_volume                     3130.5(7)
_computing_cell_refinement       'CAD-4 software'
_computing_data_collection       'CAD-4 software'
_computing_data_reduction        'local software'
_computing_molecular_graphics
; ATOMS, Dowty (1993), Shape Software. 521 Hidden Valley Road, 
Kingsport TN 37663, USA.
;
_computing_structure_refinement  'local software, adaptation of LSLS'
_computing_structure_solution    'trial and error'
_diffrn_ambient_temperature      293
_diffrn_measurement_device_type  'Enraf-Nonius CAD-4 diffractometer'
_diffrn_measurement_method       \w
_diffrn_radiation_monochromator  graphite
_diffrn_radiation_source         'fine-focus sealed tube'
_diffrn_radiation_type           MoK\a
_diffrn_radiation_wavelength     0.710769
_diffrn_reflns_av_R_equivalents  0.0110
_diffrn_reflns_limit_h_max       22
_diffrn_reflns_limit_h_min       -11
_diffrn_reflns_limit_k_max       22
_diffrn_reflns_limit_k_min       0
_diffrn_reflns_limit_l_max       19
_diffrn_reflns_limit_l_min       -19
_diffrn_reflns_number            3365
_diffrn_reflns_theta_max         30.0
_diffrn_standards_decay_%        0
_diffrn_standards_interval_time  120
_diffrn_standards_number         3
_exptl_absorpt_coefficient_mu    0.1057
_exptl_absorpt_correction_type   none
_exptl_crystal_colour            dark_brown-red
_exptl_crystal_density_diffrn    1.672
_exptl_crystal_density_method    'not measured'
_exptl_crystal_F_000             1602
_exptl_crystal_size_max          0.41
_exptl_crystal_size_mid          0.36
_exptl_crystal_size_min          0.33
_refine_diff_density_max         0.4
_refine_diff_density_min         -0.4
_refine_ls_extinction_coef
;
;
_refine_ls_extinction_expression 'Becker & Coppens (1974)'
_refine_ls_extinction_method     'Becker & Coppens (1974)'
_refine_ls_hydrogen_treatment    refall
_refine_ls_matrix_type           full
_refine_ls_number_parameters     85
_refine_ls_number_reflns         1124
_refine_ls_number_restraints     68
_refine_ls_restrained_S_all      5.274
_refine_ls_R_factor_gt           0.0422
_refine_ls_shift/su_max          0.01
_refine_ls_structure_factor_coef Fsqd
_refine_ls_weighting_scheme      sigma
_refine_ls_wR_factor_ref         0.0565
_reflns_number_gt                751
_reflns_number_total             1124
_reflns_threshold_expression     I>3\s(I)
_cod_data_source_file            bk0080.cif
_cod_data_source_block           293K
_cod_original_cell_volume        3130.5(9)
_cod_original_sg_symbol_H-M      'R -3 m'
_cod_database_code               2102164
loop_
_symmetry_equiv_pos_as_xyz
'x, y, z'
'-y, x-y, z'
'-x+y, -x, z'
'x-y, -y, -z'
'-x, -x+y, -z'
'y, x, -z'
'-x, -y, -z'
'y, -x+y, -z'
'x-y, x, -z'
'-x+y, y, z'
'x, x-y, z'
'-y, -x, z'
'x-1/3, y+1/3, z+1/3'
'-y-1/3, x-y+1/3, z+1/3'
'-x+y-1/3, -x+1/3, z+1/3'
'x-y-1/3, -y+1/3, -z+1/3'
'-x-1/3, -x+y+1/3, -z+1/3'
'y-1/3, x+1/3, -z+1/3'
'-x-1/3, -y+1/3, -z+1/3'
'y-1/3, -x+y+1/3, -z+1/3'
'x-y-1/3, x+1/3, -z+1/3'
'-x+y-1/3, y+1/3, z+1/3'
'x-1/3, x-y+1/3, z+1/3'
'-y-1/3, -x+1/3, z+1/3'
'x+1/3, y-1/3, z-1/3'
'-y+1/3, x-y-1/3, z-1/3'
'-x+y+1/3, -x-1/3, z-1/3'
'x-y+1/3, -y-1/3, -z-1/3'
'-x+1/3, -x+y-1/3, -z-1/3'
'y+1/3, x-1/3, -z-1/3'
'-x+1/3, -y-1/3, -z-1/3'
'y+1/3, -x+y-1/3, -z-1/3'
'x-y+1/3, x-1/3, -z-1/3'
'-x+y+1/3, y-1/3, z-1/3'
'x+1/3, x-y-1/3, z-1/3'
'-y+1/3, -x-1/3, z-1/3'
loop_
_atom_site_label
_atom_site_type_symbol
_atom_site_fract_x
_atom_site_fract_y
_atom_site_fract_z
_atom_site_U_iso_or_equiv
_atom_site_adp_type
C4 C .26227(2) .13114(1) .59711(2) .03277(14) Uani
O4 O .19189(2) .09594(1) .52763(2) .05426(14) Uani
C5 C .29797(2) .07550(2) .63209(2) .03554(12) Uani
H4 H .1651(4) .1201(4) .5140(5) .095(3) Uiso
H5 H .27097(14) .01065(19) .60757(13) .0389(6) Uiso
C103 C .01332(5) -.03893(4) .24998(3) .06795(18) Utls
C104 C -.08291(4) -.11488(4) .22624(3) .06291(17) Utls
C105 C -.14263(5) -.07131(2) .21130(4) .05982(17) Utls
C106 C -.21049(5) -.10524(2) .14108(5) .05576(17) Utls
C109 C -.24626(4) -.16847(4) -.01840(5) .05790(18) Utls
C110 C -.22414(3) -.18546(4) .08018(4) .05557(17) Utls
C111 C -.16913(3) -.22596(4) .09389(4) .05698(17) Utls
C112 C -.09587(4) -.18971(4) .16939(3) .06023(17) Utls
C113 C -.01313(4) -.19330(5) .13225(4) .06108(18) Utls
C114 C -.03533(4) -.23195(6) .03297(4) .05884(20) Utls
C115 C -.13145(4) -.25269(5) .00948(4) .05849(18) Utls
C116 C -.15115(4) -.23638(5) -.08097(4) .06107(17) Utls
C117 C -.21114(5) -.19282(6) -.09600(4) .06199(17) Utls
C118 C -.17441(6) -.12986(6) -.17879(5) .06731(17) Utls
C119 C -.09048(4) -.13263(6) -.21489(4) .06768(17) Utls
C120 C -.07674(4) -.19881(5) -.15422(5) .06362(17) Utls
loop_
_atom_site_aniso_label
_atom_site_aniso_U_11
_atom_site_aniso_U_22
_atom_site_aniso_U_33
_atom_site_aniso_U_12
_atom_site_aniso_U_13
_atom_site_aniso_U_23
C4 .0322(2) .03231(14) .03377(18) .01610(11) .00587(17) .00293(8)
O4 .05011(19) .05688(17) .05353(19) .02506(10) -.01262(15) -.00631(8)
C5 .04283(17) .02449(13) .04080(15) .01795(13) .00704(12) .00086(11)
loop_
_atom_type_symbol
_atom_type_description
_atom_type_scat_dispersion_real
_atom_type_scat_dispersion_imag
_atom_type_scat_source
C C 0.0033 0.0016 'International Tables Vol C Tables 4.2.6.8 and 6.1.1.4'
H H 0.0000 0.0000 'International Tables Vol C Tables 4.2.6.8 and 6.1.1.4'
O O 0.0106 0.0060 'International Tables Vol C Tables 4.2.6.8 and 6.1.1.4'
La La -0.2871 2.4523 'International Tables Vol C Tables 4.2.6.8 and 6.1.1.4'
