#------------------------------------------------------------------------------
#$Date$
#$Revision$
#$URL$
#------------------------------------------------------------------------------
#
# This file is available in the Crystallography Open Database (COD),
# http://www.crystallography.net/
#
# All data on this site have been placed in the public domain by the
# contributors.
#
data_2000000
loop_
_publ_author_name
'A. Gonzalez'
'A. Beltran'
'A. le Bail'
_publ_section_title
' Structure of the decahydrated octaacetate of dineodymium(III) and cobalt(II)'
_journal_coeditor_code           PA0193
_journal_name_full               'Acta Crystallographica Section C'
_journal_page_first              1624
_journal_page_last               1627
_journal_paper_doi               10.1107/S0108270191002184
_journal_volume                  47
_journal_year                    1991
_chemical_formula_sum            'C16 H44 Co Nd2 O26'
_space_group_IT_number           2
_space_group_name_Hall           '-P 1'
_space_group_name_H-M_alt        'P -1'
_symmetry_cell_setting           triclinic
_symmetry_Int_Tables_number      2
_symmetry_space_group_name_Hall  '-P 1'
_symmetry_space_group_name_H-M   'P -1'
_cell_angle_alpha                111.64(1)
_cell_angle_beta                 107.94(1)
_cell_angle_gamma                93.45(1)
_cell_formula_units_Z            1
_cell_length_a                   8.243(2)
_cell_length_b                   10.368(3)
_cell_length_c                   11.497(3)
_cell_volume                     851.974
_diffrn_ambient_temperature      ?
_exptl_crystal_colour            purple
_exptl_crystal_density_diffrn    1.95
_refine_ls_R_factor_gt           0.024
_refine_ls_wR_factor_gt          0.024
_cod_depositor_comments
;
 Removing 43 symmetrically equivalent atoms:

 O1A* O -0.1104(2) 0.8680(2) 0.4334(2)
 Nd1A* Nd -0.08652(1) 1.08111(1) 0.66796(1)
 O3A* O -0.1692(2) 1.0466(2) -0.1531(1)
 O5A* O 0.0662(2) 0.8389(2) -0.1408(2)
 O7A* O 0.2041(2) 1.1639(2) 0.0437(2)
 C3A* C -0.2321(3) 0.7938(2) 0.4401(2)
 O2A* O -0.2765(3) 0.8393(2) 0.5409(2)
 O3A** O -0.1692(2) 1.0466(2) 0.8469(1)
 O4A* O -0.3817(2) 1.0831(2) 0.7013(2)
 O6A* O 0.1046(2) 0.9221(2) 0.7138(2)
 O8A* O 0.1406(3) 1.2272(2) 0.8714(2)
 O9A* O -0.2875(2) 1.1095(2) 0.4687(2)
 O11A* O -0.1131(3) 1.3334(2) 0.7388(3)
 Nd1A** Nd -0.08652(1) 1.08111(1) -0.33204(1)
 C1A* C -0.3266(2) 1.0634(2) -0.1939(2)
 C4A* C 0.1002(3) 0.8257(2) -0.2435(2)
 C2A* C 0.2295(2) 1.2432(2) -0.0125(2)
 C7A* C -0.3274(5) 0.6558(3) 0.3268(3)
 C1A** C -0.3266(2) 1.0634(2) 0.8061(2)
 C4A** C 0.1002(3) 0.8257(2) 0.7565(2)
 C2A** C 0.2295(2) 1.2432(2) 0.9875(2)
 H1A* H -0.1991(49) 1.0767(52) 0.4270(49)
 H2A* H -0.4008(33) 1.0409(43) 0.4152(46)
 H5A* H -0.0390(56) 1.4191(32) 0.8194(36)
 H6A* H -0.2211(42) 1.3588(50) 0.6907(47)
 O4A** O -0.3817(2) 1.0831(2) -0.2987(2)
 C5A* C -0.4411(3) 1.0576(4) -0.1169(3)
 O6A** O 0.1046(2) 0.9221(2) -0.2862(2)
 C8A* C 0.1363(7) 0.6850(3) -0.3215(4)
 O8A** O 0.1406(3) 1.2272(2) -0.1286(2)
 C6A* C 0.3757(4) 1.3703(3) 0.0662(3)
 H17A* H -0.2961(67) 0.6425(61) 0.2390(32)
 H18A* H -0.2674(60) 0.5865(49) 0.3702(53)
 H19A* H -0.4668(10) 0.6302(53) 0.2990(51)
 H11A* H -0.3756(64) 1.0464(52) -0.0251(27)
 H12A* H -0.5401(51) 1.1197(47) -0.1042(48)
 H13A* H -0.5008(60) 0.9540(25) -0.1971(33)
 H20A* H 0.0448(44) 0.6468(52) -0.2858(44)
 H21A* H 0.0895(55) 0.6350(55) -0.4296(5)
 H22A* H 0.2612(32) 0.6601(59) -0.2816(46)
 H14A* H 0.4444(58) 1.3882(57) 0.0056(45)
 H15A* H 0.3174(64) 1.4601(37) 0.1033(46)
 H16A* H 0.4657(52) 1.3566(56) 0.1497(31)

 Antanas Vaitkus,
 2017-08-14
;
_cod_original_formula_sum        'C16 H44 Co1 Nd2 O26'
_cod_database_code               2000000
loop_
_symmetry_equiv_pos_site_id
_symmetry_equiv_pos_as_xyz
1 x,y,z
2 -x,-y,-z
loop_
_atom_site_label
_atom_site_type_symbol
_atom_site_fract_x
_atom_site_fract_y
_atom_site_fract_z
Nd1 Nd 0.08652(1) 0.91889(1) 0.33204(1)
Co1 Co 0.00000 1.00000 0.00000
O1 O 0.1104(2) 1.1320(2) 0.5666(2)
O2 O 0.2765(3) 1.1607(2) 0.4591(2)
O3 O 0.1692(2) 0.9534(2) 0.1531(1)
O4 O 0.3817(2) 0.9169(2) 0.2987(2)
O5 O -0.0662(2) 1.1611(2) 0.1408(2)
O6 O -0.1046(2) 1.0779(2) 0.2862(2)
O7 O -0.2041(2) 0.8361(2) -0.0437(2)
O8 O -0.1406(3) 0.7728(2) 0.1286(2)
O9 O 0.2875(2) 0.8905(2) 0.5313(2)
O10 O 0.3925(3) 0.2934(2) 0.3264(2)
O11 O 0.1131(3) 0.6666(2) 0.2612(3)
O12 O 0.0941(4) 0.6002(3) 0.9368(3)
O13 O 0.3018(4) 0.5562(3) 0.4230(3)
C1 C 0.3266(2) 0.9366(2) 0.1939(2)
C2 C -0.2295(2) 0.7568(2) 0.0125(2)
C3 C 0.2321(3) 1.2062(2) 0.5599(2)
C4 C -0.1002(3) 1.1743(2) 0.2435(2)
C5 C 0.4411(3) 0.9424(4) 0.1169(3)
C6 C -0.3757(4) 0.6297(3) -0.0662(3)
C7 C 0.3274(5) 1.3442(3) 0.6732(3)
C8 C -0.1363(7) 1.3150(3) 0.3215(4)
H1 H 0.1991(49) 0.9233(52) 0.5730(49)
H2 H 0.4008(33) 0.9591(43) 0.5848(46)
H3 H 0.2912(38) 0.2807(64) 0.2454(35)
H4 H 0.3530(57) 0.2516(60) 0.3812(44)
H5 H 0.0390(56) 0.5809(32) 0.1806(36)
H6 H 0.2211(42) 0.6412(50) 0.3093(47)
H7 H 0.1026(80) 0.6802(33) 0.9088(47)
H8 H 0.0848(80) 0.6363(46) 1.0277(25)
H9 H 0.3767(53) 0.4899(43) 0.3897(51)
H10 H 0.3767(53) 0.6421(36) 0.5032(39)
H11 H 0.3756(64) 0.9536(52) 0.0251(27)
H12 H 0.5401(51) 0.8803(47) 0.1042(48)
H13 H 0.5008(60) 1.0460(25) 0.1971(33)
H14 H -0.4444(58) 0.6118(57) -0.0056(45)
H15 H -0.3174(64) 0.5399(37) -0.1033(46)
H16 H -0.4657(52) 0.6434(56) -0.1497(31)
H17 H 0.2961(67) 1.3575(61) 0.7610(32)
H18 H 0.2674(60) 1.4135(49) 0.6298(53)
H19 H 0.4668(10) 1.3698(53) 0.7010(51)
H20 H -0.0448(44) 1.3532(52) 0.2858(44)
H21 H -0.0895(55) 1.3650(55) 0.4296(5)
H22 H -0.2612(32) 1.3399(59) 0.2816(46)
loop_
_atom_type_symbol
_atom_type_radius_bond
C 0.68
H 0.23
Co 1.33
Nd 1.81
O 0.68
#------------------------------------------------------------------------------
#$Date$
#$Revision$
#$URL$
#------------------------------------------------------------------------------
#
# This file is available in the Crystallography Open Database (COD),
# http://www.crystallography.net/
#
# All data on this site have been placed in the public domain by the
# contributors.
#
data_2000001
loop_
_publ_author_name
'Guery, J.'
'Leblanc, M.'
'Jacoboni, C.'
_publ_section_title
;
 ZrCl~4~ behavior in acetonitrile. Crystal structure of ZrCl~4~, 2CH~3~CN
;
_journal_coden_ASTM              EJSCE5
_journal_issue                   3
_journal_name_full
;
 European Journal of Solid State and Inorganic Chemistry
;
_journal_page_first              289
_journal_page_last               297
_journal_volume                  26
_journal_year                    1989
_chemical_formula_sum            'C4 H6 Cl4 N2 Zr'
_chemical_melting_point          443.15
_space_group_IT_number           14
_symmetry_cell_setting           monoclinic
_symmetry_space_group_name_Hall  '-P 2ybc'
_symmetry_space_group_name_H-M   'P 1 21/c 1'
_cell_angle_alpha                90
_cell_angle_beta                 99.229(3)
_cell_angle_gamma                90
_cell_formula_units_Z            4
_cell_length_a                   6.1203(2)
_cell_length_b                   13.7779(8)
_cell_length_c                   13.4435(7)
_cell_volume                     1118.947
_exptl_crystal_colour            colorless
_exptl_crystal_density_diffrn    1.84
_refine_ls_R_factor_gt           0.032
_refine_ls_wR_factor_gt          0.032
_cod_original_sg_symbol_H-M      'P 21/c'
_cod_original_formula_sum        'C4 H6 Cl4 N2 Zr1'
_cod_database_code               2000001
loop_
_symmetry_equiv_pos_site_id
_symmetry_equiv_pos_as_xyz
1 x,y,z
2 -x,1/2+y,1/2-z
3 -x,-y,-z
4 x,-1/2-y,-1/2+z
loop_
_atom_site_label
_atom_site_type_symbol
_atom_site_fract_x
_atom_site_fract_y
_atom_site_fract_z
Zr1 Zr -0.07872(4) 0.14220(2) 0.26133(2)
Cl1 Cl 0.05559(13) 0.13691(7) 0.10135(6)
Cl2 Cl 0.14130(13) 0.01024(6) 0.33225(7)
Cl3 Cl 0.13643(13) 0.27913(6) 0.32274(7)
Cl4 Cl -0.30146(15) 0.14544(7) 0.39272(7)
N1 N -0.3477(4) 0.2455(2) 0.1762(2)
C1 C -0.4798(4) 0.2958(2) 0.1353(2)
C2 C -0.6484(5) 0.3598(2) 0.0833(2)
H1 H -0.8087(5) 0.3264(2) 0.0797(2)
H2 H -0.6168(5) 0.3730(2) 0.0081(2)
H3 H -0.6452(5) 0.4278(2) 0.1233(2)
N2 N -0.3427(4) 0.0333(2) 0.1852(2)
C3 C -0.4735(4) -0.0198(2) 0.1489(2)
C4 C -0.6407(5) -0.0870(2) 0.1017(3)
H4 H -0.8001(5) -0.0515(2) 0.0900(3)
H5 H -0.6464(5) -0.1493(2) 0.1498(3)
H6 H -0.6004(5) -0.1102(2) 0.0301(3)
loop_
_atom_type_symbol
_atom_type_radius_bond
C 0.68
H 0.23
Cl 0.99
N 0.68
Zr 1.56
#------------------------------------------------------------------------------
#$Date$
#$Revision$
#$URL$
#------------------------------------------------------------------------------
#
# This file is available in the Crystallography Open Database (COD),
# http://www.crystallography.net/
#
# All data on this site have been placed in the public domain by the
# contributors.
#
data_2000002
loop_
_publ_author_name
'Leblanc, M.'
'Ferey, G.'
'Rouessac, F.'
'Aziz, M.'
_publ_section_title
;
 Structure of (-)-(6'R)-3',6'-epoxyaurapten
;
_journal_issue                   7
_journal_name_full
;
 Acta Crystallographica, Section C: Crystal Structure Communications
;
_journal_page_first              1262
_journal_page_last               1264
_journal_paper_doi               10.1107/S0108270188003403
_journal_volume                  44
_journal_year                    1988
_chemical_formula_sum            'C19 H22 O4'
_chemical_name_common
;
(-)-(6'R)-3',6'-Epoxyaurapten
;
_space_group_IT_number           19
_symmetry_cell_setting           orthorhombic
_symmetry_Int_Tables_number      19
_symmetry_space_group_name_Hall  'P 2ac 2ab'
_symmetry_space_group_name_H-M   'P 21 21 21'
_cell_angle_alpha                90
_cell_angle_beta                 90
_cell_angle_gamma                90
_cell_formula_units_Z            4
_cell_length_a                   7.295(3)
_cell_length_b                   14.926(8)
_cell_length_c                   15.160(6)
_cell_volume                     1650.699
_diffrn_ambient_temperature      ?
_exptl_crystal_density_diffrn    1.26
_refine_ls_R_factor_gt           0.035
_refine_ls_wR_factor_gt          0.035
_cod_database_code               2000002
loop_
_symmetry_equiv_pos_site_id
_symmetry_equiv_pos_as_xyz
1 x,y,z
2 1/2+x,1/2-y,-z
3 -x,1/2+y,1/2-z
4 1/2-x,-y,1/2+z
loop_
_atom_site_label
_atom_site_type_symbol
_atom_site_fract_x
_atom_site_fract_y
_atom_site_fract_z
O1 O -0.2458(4) 0.4305(2) 0.7035(2)
O2 O -0.5237(3) 0.1995(2) 0.8199(2)
O3 O 0.2268(4) 0.3682(2) 0.4950(2)
O4 O 0.4330(4) 0.3391(2) 0.3924(2)
C1 C -0.4886(6) 0.3389(2) 0.7529(3)
C2 C 0.1601(5) 0.4207(2) 0.5626(2)
C3 C 0.4342(6) 0.5107(3) 0.5549(3)
C4 C 0.3919(6) 0.3873(3) 0.4533(3)
C5 C -0.0836(6) 0.4466(2) 0.6641(3)
C6 C -0.0077(6) 0.3959(3) 0.5967(3)
C7 C -0.5048(9) 0.4353(4) 0.8933(4)
C8 C -0.6004(5) 0.2508(2) 0.7478(3)
C9 C -0.3263(6) 0.3432(3) 0.6922(3)
C10 C 0.2594(6) 0.4932(2) 0.5935(3)
C11 C -0.2457(7) 0.3285(4) 0.8767(4)
C12 C 0.4966(7) 0.4608(3) 0.4883(3)
C13 C -0.7944(6) 0.2700(3) 0.7814(3)
C14 C 0.0138(7) 0.5206(3) 0.6960(3)
C15 C -0.5915(6) 0.1966(3) 0.6631(3)
C16 C 0.1802(7) 0.5435(3) 0.6618(3)
C17 C -0.5561(6) 0.2651(3) 0.8876(3)
C18 C -0.4471(5) 0.3458(3) 0.8540(2)
C19 C -0.7645(7) 0.2774(5) 0.8816(3)
H1 H -0.856(5) 0.326(3) 0.757(3)
H2 H -0.158(6) 0.377(3) 0.848(3)
H3 H -0.069(5) 0.348(2) 0.575(2)
H4 H 0.256(6) 0.595(3) 0.686(3)
H5 H -0.356(5) 0.335(2) 0.634(2)
H6 H -0.6502(6) 0.2353(3) 0.6100(3)
H7 H -0.558(4) 0.388(2) 0.739(2)
H8 H -0.645(6) 0.450(3) 0.877(3)
H9 H -0.490(8) 0.432(3) 0.962(4)
H10 H -0.051(5) 0.554(2) 0.740(3)
H11 H 0.623(6) 0.472(3) 0.459(3)
H12 H -0.4534(6) 0.1772(3) 0.6459(3)
H13 H -0.510(6) 0.243(2) 0.942(3)
H14 H -0.209(7) 0.268(3) 0.854(3)
H15 H -0.228(7) 0.332(3) 0.935(3)
H16 H -0.228(5) 0.299(2) 0.705(2)
H17 H -0.877(6) 0.220(3) 0.771(3)
H18 H 0.512(6) 0.564(3) 0.576(3)
H19 H -0.826(6) 0.230(3) 0.910(3)
H20 H -0.800(7) 0.331(3) 0.905(3)
H21 H -0.6734(6) 0.1374(3) 0.6741(3)
H22 H -0.435(6) 0.483(3) 0.868(3)
loop_
_atom_type_symbol
_atom_type_radius_bond
C 0.68
H 0.23
O 0.68
#------------------------------------------------------------------------------
#$Date$
#$Revision$
#$URL$
#------------------------------------------------------------------------------
#
# This file is available in the Crystallography Open Database (COD),
# http://www.crystallography.net/
#
# All data on this site have been placed in the public domain by the
# contributors.
#
data_2000003
loop_
_publ_author_name
'Maignan, C.'
'Leblanc, M.'
_publ_section_title
;
 Room-temperature structure of \a--\b ethylenic sulfoxide C~15~H~18~OS:
 (-)-4,5-dimethyl-1-p-tolylsulfinyl-1,4-cyclohexadiene
;
_journal_issue                   5
_journal_name_full
;
 Acta Crystallographica, Section C: Crystal Structure Communications
;
_journal_page_first              915
_journal_page_last               917
_journal_paper_doi               10.1107/s0108270189013132
_journal_volume                  46
_journal_year                    1990
_chemical_formula_sum            'C15 H18 O S'
_space_group_IT_number           19
_symmetry_cell_setting           orthorhombic
_symmetry_Int_Tables_number      19
_symmetry_space_group_name_Hall  'P 2ac 2ab'
_symmetry_space_group_name_H-M   'P 21 21 21'
_cell_angle_alpha                90
_cell_angle_beta                 90
_cell_angle_gamma                90
_cell_formula_units_Z            4
_cell_length_a                   6.263(2)
_cell_length_b                   7.965(2)
_cell_length_c                   26.51(1)
_cell_volume                     1322.446
_diffrn_ambient_temperature      ?
_exptl_crystal_density_diffrn    1.24
_refine_ls_R_factor_gt           0.048
_refine_ls_wR_factor_gt          0.048
_cod_original_formula_sum        'C15 H18 O1 S1'
_cod_database_code               2000003
loop_
_symmetry_equiv_pos_site_id
_symmetry_equiv_pos_as_xyz
1 x,y,z
2 1/2+x,1/2-y,-z
3 -x,1/2+y,1/2-z
4 1/2-x,-y,1/2+z
loop_
_atom_site_label
_atom_site_type_symbol
_atom_site_fract_x
_atom_site_fract_y
_atom_site_fract_z
S1 S 0.2651(5) 0.0449(3) 0.1058(1)
O1 O 0.3962(9) -0.1103(6) 0.1045(2)
C1 C 0.226(1) 0.1061(7) 0.1702(2)
C2 C 0.047(1) 0.1853(8) 0.1834(3)
C3 C 0.014(2) 0.2296(8) 0.2364(3)
C4 C 0.170(1) 0.1743(8) 0.2725(3)
C5 C 0.351(1) 0.0945(7) 0.2587(3)
C6 C 0.393(1) 0.0589(9) 0.2052(3)
C7 C 0.439(1) 0.2141(9) 0.0850(2)
C8 C 0.639(1) 0.1784(9) 0.0678(2)
C9 C 0.766(2) 0.3051(9) 0.0491(2)
C10 C 0.694(1) 0.4721(9) 0.0479(2)
C11 C 0.490(2) 0.5028(8) 0.0655(2)
C12 C 0.355(1) 0.3782(8) 0.0843(2)
C13 C 0.120(1) 0.2076(9) 0.3288(2)
C14 C 0.512(1) 0.0336(9) 0.2969(3)
C15 C 0.832(2) 0.6131(8) 0.0297(3)
H1 H -0.071(2) 0.2167(8) 0.1554(3)
H2 H -0.138(2) 0.1769(8) 0.2476(3)
H3 H 0.006(2) 0.3649(8) 0.2386(3)
H4 H 0.419(1) -0.0745(9) 0.2015(3)
H5 H 0.536(1) 0.1254(9) 0.1946(3)
H6 H 0.698(1) 0.0509(9) 0.0688(2)
H7 H 0.924(2) 0.2758(9) 0.0352(2)
H8 H 0.432(2) 0.6304(8) 0.0646(2)
H9 H 0.196(1) 0.4060(8) 0.0975(2)
H10 H -0.031(1) 0.2726(9) 0.3319(2)
H11 H 0.245(1) 0.2837(9) 0.3451(2)
H12 H 0.110(1) 0.0894(9) 0.3486(2)
H13 H 0.644(1) -0.0265(9) 0.2776(3)
H14 H 0.437(1) -0.0553(9) 0.3221(3)
H15 H 0.572(1) 0.1390(9) 0.3184(3)
H16 H 0.985(2) 0.5638(8) 0.0175(3)
H17 H 0.857(2) 0.7018(8) 0.0599(3)
H18 H 0.755(2) 0.6753(8) -0.0016(3)
loop_
_atom_type_symbol
_atom_type_radius_bond
C 0.68
H 0.23
O 0.68
S 1.02
#------------------------------------------------------------------------------
#$Date$
#$Revision$
#$URL$
#------------------------------------------------------------------------------
#
# This file is available in the Crystallography Open Database (COD),
# http://www.crystallography.net/
#
# All data on this site have been placed in the public domain by the
# contributors.
#
data_2000004
loop_
_publ_author_name
'Bieber, L. W.'
'Leblanc, M.'
_publ_section_title
;
 Room-temperature structure of cordiaquinone B
;
_journal_issue                   5
_journal_name_full
;
 Acta Crystallographica, Section C: Crystal Structure Communications
;
_journal_page_first              911
_journal_page_last               913
_journal_paper_doi               10.1107/s0108270189012023
_journal_volume                  46
_journal_year                    1990
_chemical_formula_sum            'C21 H24 O3'
_chemical_melting_point          405
_space_group_IT_number           4
_symmetry_cell_setting           monoclinic
_symmetry_space_group_name_Hall  'P 2yb'
_symmetry_space_group_name_H-M   'P 1 21 1'
_cell_angle_alpha                90
_cell_angle_beta                 100.24(1)
_cell_angle_gamma                90
_cell_formula_units_Z            2
_cell_length_a                   7.729(1)
_cell_length_b                   7.180(1)
_cell_length_c                   16.206(3)
_cell_volume                     885.014
_exptl_crystal_colour            'light yellow'
_exptl_crystal_density_diffrn    1.21
_refine_ls_R_factor_gt           0.038
_refine_ls_wR_factor_gt          0.038
_cod_original_sg_symbol_H-M      'P 21'
_cod_database_code               2000004
loop_
_symmetry_equiv_pos_site_id
_symmetry_equiv_pos_as_xyz
1 x,y,z
2 -x,1/2+y,-z
loop_
_atom_site_label
_atom_site_type_symbol
_atom_site_fract_x
_atom_site_fract_y
_atom_site_fract_z
O1 O -0.4333(3) 0.2733(3) 0.5427(2)
O2 O -0.1072(3) 0.5711(4) -0.0343(2)
O3 O 0.5161(3) 0.7973(4) 0.1262(2)
C1 C -0.4616(3) 0.31790 0.4686(2)
C2 C -0.3138(3) 0.3867(4) 0.4257(2)
C3 C -0.3211(3) 0.2882(4) 0.3385(2)
C4 C -0.5064(3) 0.3236(4) 0.2867(2)
C5 C -0.6498(3) 0.2408(4) 0.3296(2)
C6 C -0.6426(3) 0.3195(4) 0.4174(2)
C7 C -0.1766(3) 0.3711(4) 0.2944(2)
C8 C -0.1847(3) 0.5818(4) 0.2768(2)
C9 C -0.0441(3) 0.6365(4) 0.2284(2)
C10 C 0.1153(3) 0.7092(4) 0.2679(2)
C11 C 0.2510(3) 0.7436(4) 0.2237(2)
C12 C 0.2271(3) 0.7048(4) 0.1392(2)
C13 C 0.0652(3) 0.6380(4) 0.0977(2)
C14 C -0.0696(3) 0.6061(4) 0.1420(2)
C15 C 0.0379(4) 0.6048(4) 0.0057(2)
C16 C 0.1959(4) 0.6099(4) -0.0349(2)
C17 C 0.3482(4) 0.6682(4) 0.0049(2)
C18 C 0.3751(4) 0.7297(4) 0.0921(2)
C19 C -0.1357(3) 0.3750(4) 0.4843(2)
C20 C -0.2825(3) 0.0791(4) 0.3505(2)
C21 C -0.5311(4) 0.2582(4) 0.1948(2)
H1 H -0.3324(3) 0.5331(4) 0.4116(2)
H2 H -0.5189(3) 0.4734(4) 0.2844(2)
H3 H -0.6326(3) 0.0916(4) 0.3339(2)
H4 H -0.7766(3) 0.2723(4) 0.2923(2)
H5 H -0.7275(3) 0.2371(4) 0.4492(2)
H6 H -0.6892(3) 0.4616(4) 0.4120(2)
H7 H -0.1842(3) 0.3007(4) 0.2350(2)
H8 H -0.0513(3) 0.3420(4) 0.3334(2)
H9 H -0.1653(3) 0.6565(4) 0.3356(2)
H10 H -0.3118(3) 0.6165(4) 0.2408(2)
H11 H 0.1345(3) 0.7398(4) 0.3342(2)
H12 H 0.3743(3) 0.8003(4) 0.2556(2)
H13 H -0.1955(3) 0.5574(4) 0.1094(2)
H14 H 0.1848(4) 0.5638(4) -0.0990(2)
H15 H 0.4581(4) 0.6712(4) -0.0279(2)
H16 H -0.0339(3) 0.4247(4) 0.4520(2)
H17 H -0.1091(3) 0.2321(4) 0.5033(2)
H18 H -0.1384(3) 0.4600(4) 0.5390(2)
H19 H -0.3808(3) 0.0157(4) 0.3812(2)
H20 H -0.1542(3) 0.0603(4) 0.3886(2)
H21 H -0.2853(3) 0.0143(4) 0.2901(2)
H22 H -0.4291(4) 0.3177(4) 0.1653(2)
H23 H -0.6580(4) 0.3031(4) 0.1619(2)
H24 H -0.5234(4) 0.1081(4) 0.1929(2)
loop_
_atom_type_symbol
_atom_type_radius_bond
C 0.68
H 0.23
O 0.68
#------------------------------------------------------------------------------
#$Date$
#$Revision$
#$URL$
#------------------------------------------------------------------------------
#
# This file is available in the Crystallography Open Database (COD),
# http://www.crystallography.net/
#
# All data on this site have been placed in the public domain by the
# contributors.
#
data_2000005
loop_
_publ_author_name
'Yonezawa, S.'
'Leblanc, M.'
'Guesdon, A.'
'Alexandre, C.'
_publ_section_title
' 1-(5-Methanesulfinyl-2,2,6-trimethyl-3a,3b,4,5,6,8a-hexahydro-1,3,8-trioxacyclopenta[a]inden-5-yl)hexan-1-ol'
_journal_issue                   12
_journal_name_full
;
 Acta Crystallographica, Section C: Crystal Structure Communications
;
_journal_page_first              1986
_journal_page_last               1987
_journal_paper_doi               10.1107/s0108270198008804
_journal_volume                  54
_journal_year                    1998
_chemical_formula_sum            'C19 H32 O5 S'
_space_group_IT_number           19
_symmetry_cell_setting           orthorhombic
_symmetry_Int_Tables_number      19
_symmetry_space_group_name_Hall  'P 2ac 2ab'
_symmetry_space_group_name_H-M   'P 21 21 21'
_cell_angle_alpha                90
_cell_angle_beta                 90
_cell_angle_gamma                90
_cell_formula_units_Z            4
_cell_length_a                   7.150(2)
_cell_length_b                   10.284(2)
_cell_length_c                   27.726(2)
_cell_volume                     2038.709
_diffrn_ambient_temperature      ?
_exptl_crystal_colour            colorless
_exptl_crystal_density_diffrn    1.214
_exptl_crystal_description       prism
_exptl_crystal_preparation       ether
_refine_ls_R_factor_gt           0.0392
_refine_ls_wR_factor_gt          0.0392
_cod_original_formula_sum        'C19 H32 O5 S1'
_cod_database_code               2000005
loop_
_symmetry_equiv_pos_site_id
_symmetry_equiv_pos_as_xyz
1 x,y,z
2 1/2-x,-y,1/2+z
3 -x,1/2+y,1/2-z
4 1/2+x,1/2-y,-z
loop_
_atom_site_label
_atom_site_type_symbol
_atom_site_fract_x
_atom_site_fract_y
_atom_site_fract_z
S1 S -0.0254(1) 0.88951(7) 0.23189(2)
O1 O -0.1325(4) 0.9226(3) -0.02495(8)
O2 O -0.1652(3) 0.9894(2) 0.21445(7)
O3 O -0.3292(4) 0.9386(3) 0.03780(8)
O4 O 0.2678(3) 0.7115(2) 0.23563(7)
H1 H 0.2527(55) 0.6446(16) 0.2512(6)
O5 O 0.1217(3) 0.8909(3) 0.02732(8)
C1 C -0.0557(5) 0.8433(4) 0.0100(1)
H2 H -0.0431(5) 0.7542(4) -0.00209(10)
C2 C -0.1939(5) 0.8481(3) 0.0525(1)
H3 H -0.2502(5) 0.7626(3) 0.05817(10)
C3 C -0.0779(4) 0.8922(3) 0.09654(9)
H4 H -0.1245(4) 0.9764(3) 0.10794(9)
C4 C 0.1148(4) 0.9088(3) 0.0766(1)
C5 C 0.2590(4) 0.9304(3) 0.10573(11)
H5 H 0.3808(4) 0.9376(3) 0.09433(11)
C6 C 0.2111(4) 0.9424(3) 0.1589(1)
H6 H 0.1338(4) 1.0206(3) 0.16195(10)
C7 C 0.0851(4) 0.8257(3) 0.17555(9)
C8 C -0.0704(4) 0.7974(3) 0.13856(9)
H7 H -0.0525(4) 0.7103(3) 0.12590(9)
H8 H -0.1900(4) 0.7989(3) 0.15504(9)
C9 C 0.1845(4) 0.6967(3) 0.18873(9)
H9 H 0.0886(4) 0.6289(3) 0.19112(9)
C10 C 0.3314(5) 0.6504(3) 0.1528(1)
H10 H 0.4389(5) 0.7078(3) 0.15396(10)
H11 H 0.2801(5) 0.6538(3) 0.1204(1)
C11 C 0.3936(5) 0.5114(3) 0.1640(2)
H12 H 0.4074(5) 0.5025(3) 0.19860(12)
H13 H 0.2958(5) 0.4521(3) 0.15378(12)
C12 C 0.5746(6) 0.4713(4) 0.14020(14)
H14 H 0.6742(6) 0.5280(4) 0.15122(14)
H15 H 0.5630(6) 0.4819(4) 0.10557(14)
C13 C 0.6264(7) 0.3311(4) 0.1513(2)
H16 H 0.6116(7) 0.3169(4) 0.1856(2)
H17 H 0.5382(7) 0.2747(4) 0.1349(2)
C14 C 0.8183(8) 0.2913(5) 0.1374(2)
H18 H 0.8811(42) 0.2910(26) 0.1068(5)
H19 H 0.8699(49) 0.3586(21) 0.1574(8)
H20 H 0.8349(56) 0.2086(13) 0.1528(8)
C15 C 0.3854(5) 0.9661(3) 0.1900(2)
H21 H 0.3506(43) 0.9771(26) 0.2232(4)
H22 H 0.4741(37) 0.8964(22) 0.1874(10)
H23 H 0.4406(44) 1.0450(16) 0.1782(10)
C16 C -0.2650(6) 1.0080(4) -0.0036(2)
C17 C -0.174(1) 1.1329(5) 0.0101(3)
H24 H -0.2690(35) 1.1856(32) 0.0248(9)
H25 H -0.0817(31) 1.1103(33) 0.0339(8)
H26 H -0.1157(35) 1.1805(33) -0.0155(9)
C18 C -0.4261(7) 1.0236(5) -0.03655(15)
H27 H -0.5290(33) 1.0708(23) -0.0228(11)
H28 H -0.3777(43) 1.0704(21) -0.0638(7)
H29 H -0.4683(45) 0.9393(16) -0.0468(10)
C19 C -0.1642(5) 0.7532(3) 0.2505(2)
H30 H -0.0790(33) 0.6941(23) 0.2659(8)
H31 H -0.2505(30) 0.7866(28) 0.2740(7)
H32 H -0.2319(33) 0.7082(27) 0.2257(9)
loop_
_atom_type_symbol
_atom_type_radius_bond
C 0.68
H 0.23
O 0.68
S 1.02
#------------------------------------------------------------------------------
#$Date$
#$Revision$
#$URL$
#------------------------------------------------------------------------------
#
# This file is available in the Crystallography Open Database (COD),
# http://www.crystallography.net/
#
# All data on this site have been placed in the public domain by the
# contributors.
#
data_2000006
loop_
_publ_author_name
'Fourquet, J. L.'
'Leblanc, M.'
'Saravanamuthu, A.'
'Bruce, M. R. M.'
'Bruce, A. E.'
_publ_section_title
;
 Reactions of molybdenum(0) tricarbonyl complexes with 8-azidoquinoline.
 Crystal structure of the phosphinimine complex Mo(CO)~4~[N(PPh~3~)(C~9~H~6~N)]
 and evidence for a bent nitrene
;
_journal_issue                   17
_journal_name_full               'Inorganic Chemistry'
_journal_page_first              3241
_journal_page_last               3243
_journal_paper_doi               10.1021/ic00017a002
_journal_volume                  30
_journal_year                    1991
_chemical_formula_sum            'C33 H24 Mo N3 O4 P'
_space_group_IT_number           2
_symmetry_cell_setting           triclinic
_symmetry_Int_Tables_number      2
_symmetry_space_group_name_Hall  '-P 1'
_symmetry_space_group_name_H-M   'P -1'
_cell_angle_alpha                99.43(3)
_cell_angle_beta                 92.56(3)
_cell_angle_gamma                108.21(3)
_cell_formula_units_Z            2
_cell_length_a                   9.260(5)
_cell_length_b                   12.390(6)
_cell_length_c                   13.729(7)
_cell_volume                     1468.296
_diffrn_ambient_temperature      ?
_exptl_crystal_colour            red-brown
_exptl_crystal_density_diffrn    1.47
_refine_ls_R_factor_gt           0.0265
_refine_ls_wR_factor_gt          0.0265
_cod_original_formula_sum        'C33 H24 Mo1 N3 O4 P1'
_cod_database_code               2000006
loop_
_symmetry_equiv_pos_site_id
_symmetry_equiv_pos_as_xyz
1 x,y,z
2 -x,-y,-z
loop_
_atom_site_label
_atom_site_type_symbol
_atom_site_fract_x
_atom_site_fract_y
_atom_site_fract_z
Mo1 Mo 0.37610 0.40220 0.22190
O1 O 0.2014(3) 0.5204(2) 0.3697(2)
O2 O 0.1108(3) 0.3842(3) 0.0615(2)
O3 O 0.5044(3) 0.6484(2) 0.1750(2)
O4 O 0.6452(4) 0.5162(3) 0.3945(3)
N1 N 0.5158(3) 0.3224(2) 0.1222(2)
N2 N 0.3169(3) 0.2112(2) 0.2396(2)
P1 P 0.1930(1) 0.1434(1) 0.3075(1)
C1 C 0.2628(4) 0.4711(3) 0.3157(3)
C2 C 0.2047(4) 0.3804(3) 0.1171(3)
C3 C 0.4558(4) 0.5554(3) 0.1923(3)
C4 C 0.5508(4) 0.4651(3) 0.3320(3)
C5 C 0.6221(3) 0.1658(3) 0.0854(2)
C6 C 0.5200(3) 0.2156(3) 0.1342(2)
C7 C 0.6078(4) 0.3772(3) 0.0616(3)
C8 C 0.7156(4) 0.2283(4) 0.0224(3)
C9 C 0.7078(5) 0.3313(4) 0.0095(3)
C10 C 0.4267(4) 0.0498(3) 0.2105(3)
C11 C 0.4184(3) 0.1560(3) 0.1980(2)
C12 C 0.5297(4) 0.0018(3) 0.1635(3)
C13 C 0.6261(4) 0.0574(3) 0.1029(3)
C14 C 0.0571(3) 0.0111(3) 0.2373(2)
C15 C 0.0624(4) -0.0209(3) 0.1368(2)
C16 C -0.0523(4) -0.1147(3) 0.0820(3)
C17 C -0.1719(4) -0.1766(3) 0.1271(3)
C18 C -0.1795(4) -0.1459(3) 0.2259(3)
C19 C -0.0660(4) -0.0523(3) 0.2811(3)
C20 C 0.0710(3) 0.2254(2) 0.3521(2)
C21 C -0.0380(4) 0.2361(3) 0.2857(3)
C22 C -0.1397(4) 0.2919(3) 0.3196(3)
C23 C -0.1340(4) 0.3348(3) 0.4187(3)
C24 C -0.0261(5) 0.3247(4) 0.4849(3)
C25 C 0.0762(4) 0.2690(3) 0.4525(3)
C26 C 0.2853(3) 0.1167(3) 0.4158(2)
C27 C 0.2409(4) 0.0155(3) 0.4523(3)
C28 C 0.3164(3) 0.0065(4) 0.5382(3)
C29 C 0.4354(6) 0.0983(5) 0.5872(3)
C30 C 0.4824(5) 0.1985(4) 0.5514(3)
C31 C 0.4082(4) 0.2098(3) 0.4660(3)
H1 H 0.6054(39) 0.4520(31) 0.0570(26)
H2 H 0.7777(40) 0.1955(30) -0.0070(26)
H3 H 0.7716(41) 0.3742(30) -0.0275(26)
H4 H 0.3713(41) 0.0094(30) 0.2448(27)
H5 H 0.5301(38) -0.0719(30) 0.1737(25)
H6 H 0.6908(40) 0.0296(29) 0.0717(25)
H7 H 0.1364(38) 0.0234(29) 0.1077(26)
H8 H -0.0439(41) -0.1321(31) 0.0225(26)
H9 H -0.2415(40) -0.2362(31) 0.0866(26)
H10 H -0.2546(41) -0.1911(30) 0.2588(25)
H11 H -0.0717(41) -0.0345(31) 0.3406(26)
H12 H -0.0438(38) 0.2059(29) 0.2202(26)
H13 H -0.2085(40) 0.2984(29) 0.2718(26)
H14 H -0.1955(39) 0.3690(29) 0.4481(26)
H15 H -0.0126(39) 0.3564(29) 0.5529(27)
H16 H 0.1444(40) 0.2598(30) 0.500(22)
H17 H 0.1677(41) -0.0427(31) 0.4200(27)
H18 H 0.2816(40) -0.0631(31) 0.5563(27)
H19 H 0.4766(42) 0.0954(32) 0.639(27)
H20 H 0.5543(42) 0.2593(31) 0.5865(27)
H21 H 0.4404(40) 0.2779(30) 0.4437(26)
C32 C 0.0976(7) 0.6943(5) 0.2318(3)
C33 C -0.0356(9) 0.5951(6) 0.2041(5)
N3 N 0.2004(6) 0.7715(4) 0.2523(4)
H22 H -0.1041(43) 0.6076(33) 0.2478(28)
H23 H -0.0317(44) 0.5379(33) 0.2329(29)
H24 H -0.0456(43) 0.5615(33) 0.1418(28)
loop_
_atom_type_symbol
_atom_type_radius_bond
C 0.68
H 0.23
Mo 1.47
N 0.68
O 0.68
P 1.05
#------------------------------------------------------------------------------
#$Date$
#$Revision$
#$URL$
#------------------------------------------------------------------------------
#
# This file is available in the Crystallography Open Database (COD),
# http://www.crystallography.net/
#
# All data on this site have been placed in the public domain by the
# contributors.
#
data_2000007
loop_
_publ_author_name
'K. Khamlach'
'R. Dhal'
'E. Brown'
'M. Leblanc'
'G. Ferey'
_publ_section_title
;
 Room-temperature structure of (+-)-methyltrachelogenin
;
_journal_coeditor_code           PA0040
_journal_name_full
'Acta Crystallogr.,Sect.C:Cryst.Struct.Commun.'
_journal_page_first              1746
_journal_page_last               1748
_journal_paper_doi               10.1107/S0108270189004403
_journal_volume                  45
_journal_year                    1989
_chemical_formula_sum            'C22 H26 O7'
_chemical_melting_point          419
_chemical_name_common            (+-)-Methyltrachelogenin
_chemical_name_systematic
3,4-Bis[(3,4-dimethoxyphenyl)methyl]-3-hydoxydihydro-2(3H)-furanone
_space_group_IT_number           14
_symmetry_cell_setting           monoclinic
_symmetry_space_group_name_Hall  '-P 2ybc'
_symmetry_space_group_name_H-M   'P 1 21/c 1'
_cell_angle_alpha                90
_cell_angle_beta                 103.38(4)
_cell_angle_gamma                90
_cell_formula_units_Z            4
_cell_length_a                   7.257(3)
_cell_length_b                   14.474(6)
_cell_length_c                   19.88(1)
_cell_volume                     2031.5(16)
_diffrn_ambient_temperature      250(1)
_exptl_crystal_density_diffrn    1.31
_exptl_crystal_F_000             856
_refine_ls_R_factor_gt           0.051
_refine_ls_wR_factor_gt          0.051
_cod_original_cell_volume        2031.473
_cod_original_sg_symbol_H-M      'P 21/c'
_cod_database_code               2000007
loop_
_symmetry_equiv_pos_site_id
_symmetry_equiv_pos_as_xyz
1 x,y,z
2 -x,1/2+y,1/2-z
3 -x,-y,-z
4 x,-1/2-y,-1/2+z
loop_
_atom_site_label
_atom_site_type_symbol
_atom_site_fract_x
_atom_site_fract_y
_atom_site_fract_z
O1 O 0.9272(8) 0.2136(4) 0.1014(3)
C1 C 0.8925(14) 0.1531(6) 0.1488(5)
C2 C 0.6790(12) 0.1359(6) 0.1363(4)
C3 C 0.5945(11) 0.2195(6) 0.0936(4)
C4 C 0.7494(12) 0.2430(6) 0.0546(4)
C5 C 0.6113(12) 0.1192(5) 0.2026(4)
C6 C 0.6357(14) 0.2010(6) 0.2514(4)
C7 C 0.4797(13) 0.2587(6) 0.2504(4)
C8 C 0.4922(12) 0.3318(6) 0.2945(4)
C9 C 0.6657(13) 0.3521(7) 0.3424(5)
C10 C 0.8193(13) 0.2959(7) 0.3445(4)
C11 C 0.8029(12) 0.2213(7) 0.2995(5)
C12 C 0.3993(11) 0.2074(6) 0.0456(4)
C13 C 0.3431(10) 0.2923(7) -0.0004(5)
C14 C 0.2997(10) 0.3766(6) 0.0253(4)
C15 C 0.2678(10) 0.4527(6) -0.0172(5)
C16 C 0.276(1) 0.4458(7) -0.0871(4)
C17 C 0.3128(11) 0.3611(8) -0.1129(4)
C18 C 0.3462(11) 0.2839(6) -0.0696(5)
O2 O 1.0198(9) 0.1189(5) 0.1908(3)
O3 O 0.6486(11) 0.0546(5) 0.0935(3)
O4 O 0.3507(8) 0.3934(4) 0.2987(3)
C19 C 0.1748(11) 0.3798(6) 0.2516(5)
O5 O 0.6630(8) 0.4264(4) 0.3847(3)
C20 C 0.8403(12) 0.4557(7) 0.4274(4)
O6 O 0.2228(7) 0.5383(4) 0.0042(3)
C21 C 0.2063(11) 0.5482(6) 0.0745(4)
O7 O 0.2433(7) 0.5280(4) -0.1231(3)
C22 C 0.2818(12) 0.5275(6) -0.1900(4)
H1 H 0.6029(11) 0.2818(6) 0.1241(4)
H2 H 0.7519(12) 0.3164(6) 0.0449(4)
H3 H 0.7258(12) 0.2060(6) 0.0062(4)
H4 H 0.6902(12) 0.0618(5) 0.2297(4)
H5 H 0.4626(12) 0.1019(5) 0.1885(4)
H6 H 0.3471(13) 0.2450(6) 0.2140(4)
H7 H 0.9520(13) 0.3096(7) 0.3809(4)
H8 H 0.9239(12) 0.1769(7) 0.3021(5)
H9 H 0.2965(11) 0.1970(6) 0.0764(4)
H10 H 0.4010(11) 0.1478(6) 0.0130(4)
H11 H 0.2911(10) 0.3827(6) 0.0786(4)
H12 H 0.3167(11) 0.3542(8) -0.1666(4)
H13 H 0.3732(11) 0.2173(6) -0.0899(5)
H14 H 0.599(13) 0.010(6) 0.105(5)
H15 H 0.0824(11) 0.4295(6) 0.2675(5)
H16 H 0.1188(11) 0.3111(6) 0.2542(5)
H17 H 0.1836(11) 0.3943(6) 0.1991(5)
H18 H 0.8139(12) 0.5149(7) 0.4569(4)
H19 H 0.9318(12) 0.4756(7) 0.3941(4)
H20 H 0.9078(12) 0.4020(7) 0.4623(4)
H21 H 0.1585(11) 0.6180(6) 0.0794(4)
H22 H 0.3410(11) 0.5376(6) 0.1104(4)
H23 H 0.1037(11) 0.5001(6) 0.0857(4)
H24 H 0.2493(12) 0.5982(6) -0.2059(4)
H25 H 0.1896(12) 0.4815(6) -0.2253(4)
H26 H 0.4275(12) 0.5128(6) -0.1904(4)
loop_
_atom_type_symbol
_atom_type_radius_bond
C 0.68
H 0.23
O 0.68
#------------------------------------------------------------------------------
#$Date$
#$Revision$
#$URL$
#------------------------------------------------------------------------------
#
# This file is available in the Crystallography Open Database (COD),
# http://www.crystallography.net/
#
# All data on this site have been placed in the public domain by the
# contributors.
#
data_2000008
loop_
_publ_author_name
'Retoux, R.'
'Girodier, L.'
'Rouessac, F.'
_publ_section_title
;
 (-)-(S,S)-\a-Phenyl-2-(p-tolylsulfinyl)-3-furanmethanol
;
_journal_issue                   1
_journal_name_full
;
 Acta Crystallographica, Section C: Crystal Structure Communications
;
_journal_page_first              146
_journal_page_last               148
_journal_paper_doi               10.1107/s0108270194006050
_journal_volume                  51
_journal_year                    1995
_chemical_formula_sum            'C18 H16 O3 S'
_chemical_melting_point          387.15
_chemical_name_common
;
(-)-(SS)-alpha-Phenyl-2-(p-Tolylsulfinyl)-3-furanmethanol
;
_space_group_IT_number           4
_symmetry_cell_setting           monoclinic
_symmetry_space_group_name_Hall  'P 2yb'
_symmetry_space_group_name_H-M   'P 1 21 1'
_cell_angle_alpha                90
_cell_angle_beta                 102.849(11)
_cell_angle_gamma                90
_cell_formula_units_Z            2
_cell_length_a                   8.2513(8)
_cell_length_b                   10.5006(13)
_cell_length_c                   9.3090(8)
_cell_volume                     786.369
_exptl_crystal_colour            Colorless
_exptl_crystal_density_diffrn    1.319
_refine_ls_R_factor_gt           0.0329
_refine_ls_wR_factor_gt          0.0329
_cod_original_sg_symbol_H-M      'P 21'
_cod_original_formula_sum        'C18 H16 O3 S1'
_cod_database_code               2000008
loop_
_symmetry_equiv_pos_site_id
_symmetry_equiv_pos_as_xyz
1 x,y,z
2 -x,1/2+y,-z
loop_
_atom_site_label
_atom_site_type_symbol
_atom_site_fract_x
_atom_site_fract_y
_atom_site_fract_z
S1 S 0.07295(4) 0.05817(3) 0.52006(3)
O1 O 0.1839(2) 0.16781(14) 0.50422(14)
O2 O -0.1703(2) 0.22078(12) 0.55000(13)
O3 O -0.3894(2) -0.14417(12) 0.3441(2)
C1 C 0.0931(2) 0.02814(13) 0.71234(15)
C2 C 0.0284(2) -0.0845(2) 0.7536(2)
C3 C 0.0457(2) -0.1104(2) 0.9014(2)
C4 C 0.1301(2) -0.0273(2) 1.0094(2)
C5 C 0.1946(2) 0.0838(2) 0.9652(2)
C6 C 0.1772(2) 0.1124(2) 0.8168(2)
C7 C 0.1544(3) -0.0576(3) 1.1706(2)
C8 C -0.1329(2) 0.11340(15) 0.4803(2)
C9 C -0.2698(2) 0.0628(2) 0.39027(13)
C10 C -0.4039(2) 0.1446(2) 0.4063(2)
C11 C -0.3377(3) 0.2365(2) 0.5014(2)
C12 C -0.2790(2) -0.05633(13) 0.2992(2)
C13 C -0.3331(2) -0.03146(14) 0.1344(2)
C14 C -0.2717(2) 0.0723(2) 0.0714(2)
C15 C -0.3086(3) 0.0893(2) -0.0808(2)
C16 C -0.4093(3) 0.0026(3) -0.1714(2)
C17 C -0.4729(3) -0.0993(3) -0.1090(3)
C18 C -0.4350(2) -0.1178(2) 0.0428(2)
H1 H -0.0305(28) -0.1356(23) 0.6801(22)
H2 H 0.0018(33) -0.1849(14) 0.9244(32)
H3 H 0.2588(28) 0.1453(21) 1.0350(24)
H4 H 0.2208(33) 0.1902(13) 0.7932(33)
H5 H 0.2639(13) -0.0712(18) 1.2333(23)
H6 H 0.1662(25) 0.0213(13) 1.2371(21)
H7 H 0.0925(21) -0.1345(11) 1.1712(22)
H8 H -0.5250(9) 0.1386(30) 0.3536(26)
H9 H -0.3848(31) 0.3050(18) 0.5510(27)
H10 H -0.1719(15) -0.0928(25) 0.3228(29)
H11 H -0.3178(27) -0.1969(23) 0.3990(27)
H12 H -0.2113(30) 0.1408(20) 0.1346(27)
H13 H -0.2684(32) 0.1720(16) -0.1275(30)
H14 H -0.4584(29) 0.0091(27) -0.2792(6)
H15 H -0.5441(29) -0.1595(20) -0.1608(29)
H16 H -0.4836(33) -0.1853(20) 0.0907(30)
loop_
_atom_type_symbol
_atom_type_radius_bond
C 0.68
H 0.23
O 0.68
S 1.02
#------------------------------------------------------------------------------
#$Date$
#$Revision$
#$URL$
#------------------------------------------------------------------------------
#
# This file is available in the Crystallography Open Database (COD),
# http://www.crystallography.net/
#
# All data on this site have been placed in the public domain by the
# contributors.
#
data_2000009
loop_
_publ_author_name
'Loiseau, Thierry'
'Retoux, Richard'
'Lacorre, Philippe'
'F\'erey, G\'erard'
_publ_section_title
;
 Oxyfluorinated Microporous Compounds
;
_journal_name_full               'Journal of Solid State Chemistry'
_journal_page_first              427
_journal_page_last               436
_journal_paper_doi               10.1006/jssc.1994.1249
_journal_volume                  111
_journal_year                    1994
_chemical_formula_sum            'C3 H14 F2 Ga3 N2 O13 P3'
_space_group_IT_number           61
_symmetry_cell_setting           orthorhombic
_symmetry_Int_Tables_number      61
_symmetry_space_group_name_Hall  '-P 2ac 2ab'
_symmetry_space_group_name_H-M   'P b c a'
_cell_angle_alpha                90
_cell_angle_beta                 90
_cell_angle_gamma                90
_cell_formula_units_Z            8
_cell_length_a                   10.154(1)
_cell_length_b                   18.393(2)
_cell_length_c                   15.773(2)
_cell_volume                     2945.805
_diffrn_ambient_temperature      ?
_refine_ls_R_factor_gt           0.024
_refine_ls_wR_factor_gt          0.024
_cod_depositor_comments
;
 Marking attached hydrogen atoms.

 Antanas Vaitkus,
 2017-08-16

 Removing 204 symmetrically equivalent atoms:

 O2D* O -0.2140(2) 0.9963(1) 0.4802(1)
 O3E* O -0.1208(2) 0.9010(1) 0.5768(1)
 O4E* O -0.2154(2) 0.8668(1) 0.4314(1)
 P1D* P 0.1405(1) 1.0759(1) 0.5164(1)
 P1E* P 0.3595(1) 0.5759(1) 0.5164(1)
 O6B* O 0.1836(2) 0.7454(1) 0.1546(1)
 O7B* O 0.1861(2) 0.6100(1) 0.1180(1)
 O8G* O 0.0050(2) 0.6618(1) 0.2105(1)
 P2B* P 0.1505(1) 0.8317(1) 0.6845(1)
 P2G* P 0.6505(1) 0.6683(1) 0.3155(1)
 O12E* O 0.5230(2) 0.8418(1) 0.4442(1)
 P3E* P -0.1204(1) 0.6830(1) 0.5628(1)
 Ga3D* Ga -0.1490(1) 1.0943(1) 0.4964(1)
 Ga2E* Ga -0.1634(1) 0.8260(1) 0.6488(1)
 Ga1E* Ga -0.3199(1) 0.7821(1) 0.4619(1)
 O1D* O 0.0011(2) 1.0666(1) 0.5555(1)
 O3A O 0.1208(2) 1.0990(1) 0.4232(1)
 O4A O 0.2154(2) 1.1332(1) 0.5686(1)
 O1E* O 0.4989(2) 0.5666(1) 0.5555(1)
 O2A* O 0.2860(2) 0.5037(1) 0.5198(1)
 Ga1B* Ga 0.1801(1) 0.7821(1) 0.0381(1)
 Ga3B* Ga 0.1490(1) 0.5943(1) 0.0036(1)
 Ga2G* Ga -0.1634(1) 0.6740(1) 0.1488(1)
 O5B* O 0.2352(2) 0.8538(1) 0.7606(1)
 O8E* O 0.0050(2) 0.8382(1) 0.7105(1)
 O5G* O 0.7352(2) 0.6462(1) 0.2394(1)
 O6E* O 0.6836(2) 0.7454(1) 0.3454(1)
 O7E* O 0.6861(2) 0.6100(1) 0.3820(1)
 Ga1E** Ga 0.6801(1) 0.7821(1) 0.4619(1)
 O9E* O -0.2086(2) 0.6145(1) 0.5686(1)
 O10E* O -0.1403(2) 0.7258(1) 0.6462(1)
 O11E* O -0.1569(2) 0.7292(1) 0.4858(1)
 F2D* F -0.0844(2) 1.1961(1) 0.4986(1)
 O7D* O -0.1861(2) 1.1100(1) 0.3820(1)
 O9D* O -0.2914(2) 1.1145(1) 0.5686(1)
 F1E* F -0.3267(2) 0.8142(1) 0.5807(1)
 O5E* O -0.2648(2) 0.8538(1) 0.7394(1)
 F2E* F -0.4156(2) 0.6961(1) 0.4986(1)
 O6E** O -0.3164(2) 0.7454(1) 0.3454(1)
 O12E** O -0.4770(2) 0.8418(1) 0.4442(1)
 Ga2A Ga 0.1634(1) 1.1740(1) 0.3512(1)
 Ga1A Ga 0.3199(1) 1.2179(1) 0.5381(1)
 Ga3E* Ga 0.6490(1) 0.5943(1) 0.4964(1)
 Ga3A* Ga 0.3510(1) 0.4057(1) 0.5036(1)
 F1B* F 0.1733(2) 0.8142(1) -0.0807(1)
 F2B* F 0.0844(2) 0.6961(1) 0.0014(1)
 O4B* O 0.2846(2) 0.8668(1) 0.0686(1)
 O11B* O 0.3431(2) 0.7292(1) 0.0142(1)
 O12B* O 0.0230(2) 0.8418(1) 0.0558(1)
 O1B* O -0.0011(2) 0.5666(1) -0.0555(1)
 O2B* O 0.2140(2) 0.4963(1) 0.0198(1)
 O9B* O 0.2914(2) 0.6145(1) -0.0686(1)
 F1G* F -0.3267(2) 0.6858(1) 0.0807(1)
 O3G* O -0.1208(2) 0.5990(1) 0.0768(1)
 O5G** O -0.2648(2) 0.6462(1) 0.2394(1)
 O10G* O -0.1403(2) 0.7742(1) 0.1462(1)
 Ga2B* Ga 0.3366(1) 0.8260(1) 0.8512(1)
 Ga2G** Ga 0.8366(1) 0.6740(1) 0.1488(1)
 Ga3E** Ga -0.3510(1) 0.5943(1) 0.4964(1)
 Ga1D* Ga -0.1801(1) 1.2821(1) 0.4619(1)
 P2F* P -0.1505(1) 1.1683(1) 0.3155(1)
 P3D* P -0.3796(1) 1.1830(1) 0.5628(1)
 P2E* P -0.3495(1) 0.8317(1) 0.8155(1)
 F1A F 0.3267(2) 1.1858(1) 0.4193(1)
 O5A O 0.2648(2) 1.1462(1) 0.2606(1)
 O8A O -0.0050(2) 1.1618(1) 0.2895(1)
 O10A O 0.1403(2) 1.2742(1) 0.3538(1)
 F2A F 0.4156(2) 1.3039(1) 0.5014(1)
 O6A O 0.3164(2) 1.2546(1) 0.6546(1)
 O11A O 0.1569(2) 1.2708(1) 0.5142(1)
 O12A O 0.4770(2) 1.1582(1) 0.5558(1)
 F2E** F 0.5844(2) 0.6961(1) 0.4986(1)
 O2E* O 0.7140(2) 0.4963(1) 0.4802(1)
 O9E** O 0.7914(2) 0.6145(1) 0.5686(1)
 F2A* F 0.4156(2) 0.3039(1) 0.5014(1)
 O1A* O 0.5011(2) 0.4334(1) 0.4445(1)
 O7A* O 0.3139(2) 0.3900(1) 0.6180(1)
 O9A* O 0.2086(2) 0.3855(1) 0.4314(1)
 Ga2B** Ga 0.3366(1) 0.8260(1) -0.1488(1)
 P1G* P 0.3595(1) 0.9241(1) 0.0164(1)
 P3B* P 0.3796(1) 0.6830(1) -0.0628(1)
 P3G* P -0.1204(1) 0.8170(1) 0.0628(1)
 P1B* P -0.1405(1) 0.5759(1) -0.0164(1)
 P1F* P 0.1405(1) 0.4241(1) 0.0164(1)
 Ga1G* Ga -0.3199(1) 0.7179(1) -0.0381(1)
 F1B** F 0.1733(2) 0.8142(1) 0.9193(1)
 O3B* O 0.3792(2) 0.9010(1) 0.9232(1)
 O8B* O 0.5050(2) 0.8382(1) 0.7895(1)
 O10B* O 0.3597(2) 0.7258(1) 0.8538(1)
 F1D* F -0.1733(2) 1.3142(1) 0.5807(1)
 O4D* O -0.2846(2) 1.3668(1) 0.4314(1)
 O6D* O -0.1836(2) 1.2454(1) 0.3454(1)
 O11D* O -0.3431(2) 1.2292(1) 0.4858(1)
 O12D* O -0.0230(2) 1.3418(1) 0.4442(1)
 O5F* O -0.2352(2) 1.1462(1) 0.2394(1)
 O10D* O -0.3597(2) 1.2258(1) 0.6462(1)
 O12A* O -0.5230(2) 1.1582(1) 0.5558(1)
 O6G* O -0.3164(2) 0.7546(1) 0.8454(1)
 O7G* O -0.3139(2) 0.8900(1) 0.8820(1)
 O8B** O -0.4950(2) 0.8382(1) 0.7895(1)
 P2A P 0.3495(1) 1.1683(1) 0.1845(1)
 P3A P 0.1204(1) 1.3170(1) 0.4372(1)
 Ga3A Ga 0.3510(1) 1.4057(1) 0.5036(1)
 P2C* P 0.3495(1) 1.3317(1) 0.6845(1)
 P3D** P 0.6204(1) 1.1830(1) 0.5628(1)
 P1A* P 0.6405(1) 0.4241(1) 0.4836(1)
 P2C** P 0.3495(1) 0.3317(1) 0.6845(1)
 P3A* P 0.1204(1) 0.3170(1) 0.4372(1)
 O1G* O 0.4989(2) 0.9334(1) 0.0555(1)
 O2C* O 0.2860(2) 0.9963(1) 0.0198(1)
 O3B** O 0.3792(2) 0.9010(1) -0.0768(1)
 O10B** O 0.3597(2) 0.7258(1) -0.1462(1)
 O12G* O 0.5230(2) 0.6582(1) -0.0558(1)
 O9G* O -0.2086(2) 0.8855(1) 0.0686(1)
 O11G* O -0.1569(2) 0.7708(1) -0.0142(1)
 O2F* O -0.2140(2) 0.5037(1) -0.0198(1)
 O4G* O -0.2154(2) 0.6332(1) -0.0686(1)
 O1F* O 0.0011(2) 0.4334(1) 0.0555(1)
 O3C* O 0.1208(2) 0.4010(1) -0.0768(1)
 O4C* O 0.2154(2) 0.3668(1) 0.0686(1)
 F2G* F -0.4156(2) 0.8039(1) -0.0014(1)
 O6G** O -0.3164(2) 0.7546(1) -0.1546(1)
 O12G** O -0.4770(2) 0.6582(1) -0.0558(1)
 P1G** P 0.3595(1) 0.9241(1) 1.0164(1)
 P2E** P 0.6505(1) 0.8317(1) 0.8155(1)
 P3B** P 0.3796(1) 0.6830(1) 0.9372(1)
 Ga2D* Ga -0.3366(1) 1.3260(1) 0.6488(1)
 P1A** P -0.3595(1) 1.4241(1) 0.4836(1)
 Ga2F* Ga -0.3366(1) 1.1740(1) 0.1488(1)
 Ga1G** Ga -0.3199(1) 0.7179(1) 0.9619(1)
 Ga3G* Ga -0.3510(1) 0.9057(1) 0.9964(1)
 O6C* O 0.3164(2) 1.2454(1) 0.1546(1)
 O7C* O 0.3139(2) 1.1100(1) 0.1180(1)
 O8F* O 0.4950(2) 1.1618(1) 0.2105(1)
 O9A O 0.2086(2) 1.3855(1) 0.4314(1)
 O5C* O 0.2648(2) 1.3538(1) 0.7606(1)
 O7A O 0.3139(2) 1.3900(1) 0.6180(1)
 O8D* O 0.4950(2) 1.3382(1) 0.7105(1)
 O3D* O 0.6208(2) 0.4010(1) 0.5768(1)
 O4D** O 0.7154(2) 0.3668(1) 0.4314(1)
 Ga3G** Ga 0.6490(1) 0.9057(1) -0.0036(1)
 Ga3C* Ga 0.3510(1) 1.0943(1) 0.0036(1)
 Ga1G*** Ga 0.6801(1) 0.7179(1) -0.0381(1)
 Ga3G*** Ga -0.3510(1) 0.9057(1) -0.0036(1)
 Ga3F* Ga -0.1490(1) 0.4057(1) -0.0036(1)
 Ga2C* Ga 0.1634(1) 0.3260(1) -0.1488(1)
 Ga1C* Ga 0.3199(1) 0.2821(1) 0.0381(1)
 O3D** O -0.3792(2) 1.4010(1) 0.5768(1)
 O5D* O -0.2352(2) 1.3538(1) 0.7394(1)
 O8D** O -0.5050(2) 1.3382(1) 0.7105(1)
 F1F* F -0.1733(2) 1.1858(1) 0.0807(1)
 O3F* O -0.3792(2) 1.0990(1) 0.0768(1)
 O8F** O -0.5050(2) 1.1618(1) 0.2105(1)
 O10F* O -0.3597(2) 1.2742(1) 0.1462(1)
 F2G** F -0.4156(2) 0.8039(1) 0.9986(1)
 O1G** O -0.5011(2) 0.9334(1) 1.0555(1)
 O2G* O -0.2860(2) 1.0037(1) 0.9802(1)
 O9G** O -0.2086(2) 0.8855(1) 1.0686(1)
 Ga1C** Ga 0.3199(1) 1.2821(1) 0.0381(1)
 Ga2F** Ga 0.6634(1) 1.1740(1) 0.1488(1)
 Ga2C** Ga 0.1634(1) 1.3260(1) 0.8512(1)
 Ga2D** Ga 0.6634(1) 1.3260(1) 0.6488(1)
 Ga2D*** Ga 0.6634(1) 0.3260(1) 0.6488(1)
 F2C* F 0.4156(2) 1.1961(1) 0.0014(1)
 O1C* O 0.5011(2) 1.0666(1) -0.0555(1)
 O9C* O 0.2086(2) 1.1145(1) -0.0686(1)
 F2F* F -0.0844(2) 0.3039(1) -0.0014(1)
 O7F* O -0.1861(2) 0.3900(1) -0.1180(1)
 O9F* O -0.2914(2) 0.3855(1) 0.0686(1)
 F1C* F 0.3267(2) 0.3142(1) -0.0807(1)
 O5C** O 0.2648(2) 0.3538(1) -0.2394(1)
 O8C* O -0.0050(2) 0.3382(1) -0.2105(1)
 O10C* O 0.1403(2) 0.2258(1) -0.1462(1)
 F2C** F 0.4156(2) 0.1961(1) 0.0014(1)
 O6C** O 0.3164(2) 0.2454(1) 0.1546(1)
 O11C* O 0.1569(2) 0.2292(1) 0.0142(1)
 O12C* O 0.4770(2) 0.3418(1) 0.0558(1)
 P2D* P -0.1505(1) 1.3317(1) 0.8155(1)
 Ga1F* Ga -0.1801(1) 1.2179(1) -0.0381(1)
 P1C* P -0.3595(1) 1.0759(1) -0.0164(1)
 P3F* P -0.3796(1) 1.3170(1) 0.0628(1)
 P1C** P -0.3595(1) 1.0759(1) 0.9836(1)
 P1C*** P 0.6405(1) 1.0759(1) -0.0164(1)
 P3C* P 0.1204(1) 1.1830(1) -0.0628(1)
 Ga1F** Ga -0.1801(1) 0.2179(1) -0.0381(1)
 P2D** P -0.1505(1) 0.3317(1) -0.1845(1)
 P3F** P -0.3796(1) 0.3170(1) 0.0628(1)
 P3C** P 0.1204(1) 0.1830(1) -0.0628(1)
 P3F*** P 0.6204(1) 0.3170(1) 0.0628(1)
 O6F* O -0.1836(2) 1.2546(1) 0.8454(1)
 O7F** O -0.1861(2) 1.3900(1) 0.8820(1)
 O8C** O -0.0050(2) 1.3382(1) 0.7895(1)
 F2F** F -0.0844(2) 1.3039(1) -0.0014(1)
 O4F* O -0.2846(2) 1.1332(1) -0.0686(1)
 O6F** O -0.1836(2) 1.2546(1) -0.1546(1)
 O11F* O -0.3431(2) 1.2708(1) -0.0142(1)
 O12F* O -0.0230(2) 1.1582(1) -0.0558(1)
 O1C** O -0.4989(2) 1.0666(1) -0.0555(1)
 O2G** O -0.2860(2) 1.0037(1) -0.0198(1)
 O9F** O -0.2914(2) 1.3855(1) 0.0686(1)
 O12C** O -0.5230(2) 1.3418(1) 0.0558(1)
 O10C** O 0.1403(2) 1.2258(1) -0.1462(1)
 O11C** O 0.1569(2) 1.2292(1) 0.0142(1)
 Ga1F*** Ga -0.1801(1) 1.2179(1) 0.9619(1)

 Antanas Vaitkus,
 2017-08-16
;
_cod_database_code               2000009
loop_
_symmetry_equiv_pos_site_id
_symmetry_equiv_pos_as_xyz
1 x,y,z
2 1/2-x,1/2+y,z
3 x,1/2-y,1/2+z
4 1/2-x,-y,1/2+z
5 -x,-y,-z
6 -1/2+x,-1/2-y,-z
7 -x,-1/2+y,-1/2-z
8 -1/2+x,y,-1/2-z
loop_
_atom_site_label
_atom_site_type_symbol
_atom_site_fract_x
_atom_site_fract_y
_atom_site_fract_z
_atom_site_attached_hydrogens
Ga1 Ga 0.1801(1) 0.7179(1) 0.5381(1) 0
Ga2 Ga 0.3366(1) 0.6740(1) 0.3512(1) 0
Ga3 Ga 0.1490(1) 0.9057(1) 0.5036(1) 0
P1 P -0.1405(1) 0.9241(1) 0.4836(1) 0
P2 P 0.1505(1) 0.6683(1) 0.1845(1) 0
P3 P 0.3796(1) 0.8170(1) 0.4372(1) 0
F1 F 0.1733(2) 0.6858(1) 0.4193(1) 0
F2 F 0.0844(2) 0.8039(1) 0.5014(1) 0
O1 O -0.0011(2) 0.9334(1) 0.4445(1) 0
O2 O 0.2140(2) 1.0037(1) 0.5198(1) 0
O3 O 0.3792(2) 0.5990(1) 0.4232(1) 0
O4 O 0.2846(2) 0.6332(1) 0.5686(1) 0
O5 O 0.2352(2) 0.6462(1) 0.2606(1) 0
O6 O 0.1836(2) 0.7546(1) 0.6546(1) 0
O7 O 0.1861(2) 0.8900(1) 0.6180(1) 0
O8 O 0.5050(2) 0.6618(1) 0.2895(1) 0
O9 O 0.2914(2) 0.8855(1) 0.4314(1) 0
O10 O 0.3597(2) 0.7742(1) 0.3538(1) 0
O11 O 0.3431(2) 0.7708(1) 0.5142(1) 0
O12 O 0.0230(2) 0.6582(1) 0.5558(1) 0
O13 O 0.0160(4) 0.3012(2) 0.1816(2) 2
N1 N 0.5333(3) 0.4113(2) 0.8713(2) 0
N2 N 0.6738(4) 0.6120(2) 0.7566(3) 0
C1 C 0.4858(4) 0.4876(2) 0.8668(3) 0
C2 C 0.6394(5) 0.5339(2) 0.7487(3) 0
C3 C 0.5006(4) 0.5190(3) 0.7791(3) 0
H1 H 0.540(5) 0.515(3) 0.906(3) 0
H2 H 0.393(3) 0.483(3) 0.880(4) 0
H3 H 0.703(4) 0.507(3) 0.782(3) 0
H4 H 0.637(6) 0.528(3) 0.687(2) 0
H5 H 0.459(5) 0.566(2) 0.775(3) 0
H6 H 0.471(5) 0.489(3) 0.733(3) 0
H7 H 0.626(2) 0.411(3) 0.874(4) 0
H8 H 0.479(5) 0.390(3) 0.914(3) 0
H9 H 0.507(5) 0.392(3) 0.818(2) 0
H10 H 0.742(4) 0.623(3) 0.717(3) 0
H11 H 0.666(5) 0.621(3) 0.815(2) 0
H12 H 0.604(4) 0.632(3) 0.724(3) 0
loop_
_atom_type_symbol
_atom_type_radius_bond
C 0.68
H 0.23
F 0.64
Ga 1.22
N 0.68
O 0.68
P 1.05
#------------------------------------------------------------------------------
#$Date$
#$Revision$
#$URL$
#------------------------------------------------------------------------------
#
# This file is available in the Crystallography Open Database (COD),
# http://www.crystallography.net/
#
# All data on this site have been placed in the public domain by the
# contributors.
#
data_2000010
loop_
_publ_author_name
'Retoux, R.'
'Molenkamp, J.'
'Bonfand, E.'
'Gosselin, P.'
'Maignan, C.'
_publ_section_title
;
 (RS)-4-p-Toluenesulfinylcyclohexa-1,4-dienecarboxylic Acid Ethyl Ester
;
_journal_issue                   9
_journal_name_full
;
 Acta Crystallographica, Section C: Crystal Structure Communications
;
_journal_page_first              2290
_journal_page_last               2292
_journal_paper_doi               10.1107/s0108270196005744
_journal_volume                  52
_journal_year                    1996
_chemical_formula_sum            'C16 H18 O3 S'
_chemical_melting_point          355.5
_space_group_IT_number           33
_symmetry_cell_setting           orthorhombic
_symmetry_Int_Tables_number      33
_symmetry_space_group_name_Hall  'P 2c -2n'
_symmetry_space_group_name_H-M   'P n a 21'
_cell_angle_alpha                90
_cell_angle_beta                 90
_cell_angle_gamma                90
_cell_formula_units_Z            4
_cell_length_a                   27.668(7)
_cell_length_b                   5.2391(12)
_cell_length_c                   10.4134(15)
_cell_volume                     1509.479
_diffrn_ambient_temperature      ?
_exptl_crystal_colour            colorless
_exptl_crystal_density_diffrn    1.278
_refine_ls_R_factor_gt           0.042
_refine_ls_wR_factor_gt          0.042
_cod_original_formula_sum        'C16 H18 O3 S1'
_cod_database_code               2000010
loop_
_symmetry_equiv_pos_site_id
_symmetry_equiv_pos_as_xyz
1 x,y,z
2 -x,-y,1/2+z
3 1/2-x,1/2+y,1/2+z
4 1/2+x,1/2-y,z
loop_
_atom_site_label
_atom_site_type_symbol
_atom_site_fract_x
_atom_site_fract_y
_atom_site_fract_z
S1 S 0.28431(2) 0.26880(12) 0.96320(8)
O1 O 0.28815(9) 0.2837(5) 1.1058(2)
O2 O 0.06014(10) -0.1036(6) 0.7870(3)
O3 O 0.07276(7) -0.3650(5) 0.9508(2)
C1 C 0.32399(9) 0.0155(5) 0.9133(2)
C2 C 0.32287(9) -0.0759(5) 0.7887(3)
C3 C 0.35604(11) -0.2599(5) 0.7518(3)
C4 C 0.38965(9) -0.3579(6) 0.8366(3)
C5 C 0.38963(9) -0.2653(6) 0.9601(4)
C6 C 0.35762(9) -0.0774(6) 0.9994(2)
C7 C 0.42421(11) -0.5645(6) 0.7944(4)
C8 C 0.22816(9) 0.1189(5) 0.9281(2)
C9 C 0.21515(9) -0.1121(5) 1.0050(3)
C10 C 0.16485(8) -0.1987(5) 0.9782(3)
C11 C 0.13615(10) -0.0938(5) 0.8905(2)
C12 C 0.15168(10) 0.1209(5) 0.8054(3)
C13 C 0.19974(10) 0.2271(5) 0.8416(3)
C14 C 0.08608(11) -0.1861(6) 0.8693(3)
C15 C 0.02425(13) -0.4679(9) 0.9410(4)
C16 C 0.0128(2) -0.5964(14) 1.0567(5)
H1 H 0.30016(9) -0.0147(5) 0.7305(3)
H2 H 0.35566(11) -0.3191(5) 0.6677(3)
H3 H 0.41170(9) -0.3305(6) 1.0189(4)
H4 H 0.35878(9) -0.0145(6) 1.0828(2)
H5 H 0.41877(11) -0.6035(6) 0.7055(4)
H6 H 0.41900(11) -0.7149(6) 0.8452(4)
H7 H 0.45685(11) -0.5066(6) 0.8058(4)
H8 H 0.23750(9) -0.2491(5) 0.9850(3)
H9 H 0.21827(9) -0.0732(5) 1.0957(3)
H10 H 0.15278(8) -0.3348(5) 1.0257(3)
H11 H 0.15305(10) 0.0606(5) 0.7174(3)
H12 H 0.12774(10) 0.2559(5) 0.8095(3)
H13 H 0.21022(10) 0.3759(5) 0.8016(3)
H14 H 0.00136(13) -0.3307(9) 0.9263(4)
H15 H 0.02237(13) -0.5856(9) 0.8693(4)
H16 H -0.0193(2) -0.6651(14) 1.0509(5)
H17 H 0.0144(2) -0.4785(14) 1.1271(5)
H18 H 0.0354(2) -0.7326(14) 1.0703(5)
loop_
_atom_type_symbol
_atom_type_radius_bond
C 0.68
H 0.23
O 0.68
S 1.02
